language ESSENCE' 1.0
$ minion Nodes: 1
$ minion TotalTime: 0.001474
$ Savile Row TotalTime: 0.532
letting y_tuple1 be 1
letting y_tuple3 be 4
letting y_tuple4_tuple1 be 5
letting y_tuple4_tuple2 be 6
letting y_tuple2_SetExplicit be [2, 3;int(1..2)]
letting y_tuple4_tuple3_SetExplicit be [7, 8, 9;int(1..3)]
